NAME: st70
COMMENT: Local search tour for st70 (758.8788947524988)
TYPE: TOUR
DIMENSION: 70
TOUR_SECTION: 1 36 23 29 13 31 69 70 35 57 15 24 19 7 32 3 28 8 26 55 49 14 20 30 44 68 27 46 45 25 39 61 40 9 17 43 41 6 42 18 4 2 63 59 38 22 66 53 5 10 52 60 12 21 34 33 62 54 48 67 56 11 64 65 51 50 58 37 47 16 -1
EOF